job_count = 30 ;
duration = [|8, 7|17, 7|4, 7|18, 5|15, 5|8, 7|7, 7|7, 8|14, 7|2, 8|7, 3|3, 4|16, 7|9, 5|14, 7|10, 4|14, 6|17, 9|10, 3|15, 6|16, 7|10, 7|11, 5|6, 6|12, 4|12, 7|11, 1|14, 7|18, 4|9, 9|] ;
machine_count = 2 ;
cost = [|11, 39|19, 37|10, 36|14, 37|19, 27|18, 22|13, 26|14, 20|19, 31|17, 26|13, 30|11, 23|12, 36|15, 20|19, 25|14, 39|11, 30|17, 20|11, 23|13, 28|13, 21|11, 35|15, 25|15, 30|12, 33|11, 22|12, 30|11, 37|15, 26|18, 31|] ;
deadline = [75, 75, 75, 75, 75, 75, 75, 75, 75, 75, 75, 75, 75, 75, 75, 75, 75, 75, 75, 75, 75, 75, 75, 75, 75, 75, 75, 75, 75, 75] ;
release = [0, 0, 0, 0, 0, 0, 0, 0, 0, 0, 0, 0, 0, 0, 0, 0, 0, 0, 0, 0, 0, 0, 0, 0, 0, 0, 0, 0, 0, 0] ;
resource = [|2, 2|4, 4|4, 4|4, 4|1, 1|9, 9|7, 7|1, 1|8, 8|9, 9|1, 1|5, 5|6, 6|2, 2|2, 2|6, 6|3, 3|7, 7|4, 4|9, 9|8, 8|4, 4|4, 4|7, 7|7, 7|2, 2|1, 1|7, 7|7, 7|6, 6|] ;
capacities = [10, 10] ;
